NAME: Withanone; PlaSMA ID-2558
PRECURSORMZ: 471.27412
PRECURSORTYPE: [M+H]+
FORMULA: C28H38O6
Ontology: Withanolides and derivatives
INCHIKEY: FAZIYUIDUNHZRG-UHFFFAOYNA-N
SMILES: CC(C1CC(C)=C(C)C(=O)O1)C1(O)CCC2C3C4OC4C4(O)CC=CC(=O)C4(C)C3CCC12C
RETENTIONTIME: 6.82
CCS: 220.9656493
IONMODE: Positive
COLLISIONENERGY: 
Comment: Annotation level-1; PlaSMA ID-2558; ID title-Withanone; Max plant tissue-Standard only
Num Peaks: 10
68.06053	24
153.09654	20
171.07501	20
181.09505	21
220.09355	22
263.13885	18
283.15988	31
417.25351	27
435.2543	24
471.27539	57

NAME: Corosolic acid; PlaSMA ID-2570
PRECURSORMZ: 473.36254
PRECURSORTYPE: [M+H]+
FORMULA: C30H48O4
Ontology: Triterpenoids
INCHIKEY: HFGSQOYIOKBQOW-UHFFFAOYNA-N
SMILES: CC1CCC2(CCC3(C)C(=CCC4C5(C)CC(O)C(O)C(C)(C)C5CCC34C)C2C1C)C(O)=O
RETENTIONTIME: 9.89
CCS: 223.1106231
IONMODE: Positive
COLLISIONENERGY: 
Comment: Annotation level-1; PlaSMA ID-2570; ID title-Corosolic acid; Max plant tissue-Standard only
Num Peaks: 74
109.08733	30
121.0966	59
121.10341	27
123.11742	37
135.11803	65
145.0999	42
147.11229	44
149.12842	45
149.17274	17
159.11057	24
159.11604	18
163.11037	25
163.121	31
163.14987	37
164.11726	21
173.12769	24
175.13152	17
175.14751	19
175.15778	18
177.16833	22
179.15005	20
187.14374	42
188.16075	18
189.14455	24
189.16357	319
190.16736	24
203.1581	20
203.17538	37
203.18948	27
204.1898	23
205.16061	403
205.1963	78
205.24748	22
206.16309	41
206.1933	18
207.17136	77
210.43964	27
214.16658	17
215.17697	36
221.1918	20
223.15833	18
235.16354	48
241.20367	26
245.19838	19
249.18239	21
249.19588	39
285.26138	17
295.24545	55
313.23444	20
313.25516	18
391.3255	18
408.75885	17
409.35251	327
410.34262	62
410.37625	47
427.35739	65
427.37686	17
428.35693	69
437.30423	21
437.32928	46
437.34772	64
437.37619	20
438.35327	91
439.34619	22
439.36374	19
455.3334	21
455.3522	112
455.36343	52
456.34946	107
457.35306	17
472.35297	21
473.34711	55
473.36707	200
473.3905	37

NAME: Maslinic acid; PlaSMA ID-2571
PRECURSORMZ: 473.36254
PRECURSORTYPE: [M+H]+
FORMULA: C30H48O4
Ontology: Triterpenoids
INCHIKEY: MDZKJHQSJHYOHJ-UHFFFAOYNA-N
SMILES: CC1(C)CCC2(CCC3(C)C(=CCC4C5(C)CC(O)C(O)C(C)(C)C5CCC34C)C2C1)C(O)=O
RETENTIONTIME: 9.77
CCS: 218.152878
IONMODE: Positive
COLLISIONENERGY: 
Comment: Annotation level-1; PlaSMA ID-2571; ID title-Maslinic acid; Max plant tissue-Standard only
Num Peaks: 70
71.06963	24
107.08249	20
121.10465	27
123.10526	24
133.10515	47
135.1165	20
137.13234	17
147.11588	23
147.12146	18
149.12863	18
161.13533	61
163.14793	44
164.15503	24
173.12798	19
175.13443	23
175.14763	20
177.16472	45
178.15854	27
185.13341	20
187.14854	40
189.1628	32
189.1687	66
191.18356	37
192.19316	20
193.16087	36
201.16898	18
203.16878	28
203.179	82
203.19046	32
204.18051	24
204.1913	22
205.1539	19
205.16736	37
205.19719	36
206.15448	20
207.17291	61
207.18587	37
208.18057	41
216.17879	21
222.19405	23
231.17532	28
233.19249	21
247.16046	17
267.17273	20
324.28058	24
349.28433	25
375.46722	22
381.34262	22
391.33182	21
392.33908	57
409.33063	59
409.34772	311
409.35947	88
410.34534	53
410.36133	93
410.37891	17
411.32861	19
411.36859	49
412.34894	29
427.36331	38
437.32886	117
437.35199	44
438.34506	18
439.32047	18
439.35138	20
439.36945	22
455.33713	36
455.36435	45
473.34592	100
473.36807	192

NAME: Soyasapogenol A; PlaSMA ID-2579
PRECURSORMZ: 475.37819
PRECURSORTYPE: [M+H]+
FORMULA: C30H50O4
Ontology: Triterpenoids
INCHIKEY: CDDWAYFUFNQLRZ-UHFFFAOYNA-N
SMILES: CC1(C)CC2C3=CCC4C5(C)CCC(O)C(C)(CO)C5CCC4(C)C3(C)CCC2(C)C(O)C1O
RETENTIONTIME: 8.94
CCS: 219.2367595
IONMODE: Positive
COLLISIONENERGY: 
Comment: Annotation level-1; PlaSMA ID-2579; ID title-Soyasapogenol A; Max plant tissue-Standard only
Num Peaks: 20
123.08025	22
151.10565	19
188.14404	17
223.16701	22
228.18935	16
241.19829	16
245.18082	24
245.2159	20
351.25888	16
381.30728	16
398.30753	24
439.35776	25
439.37079	17
440.35336	21
440.36847	38
457.35892	50
457.37723	38
457.39117	17
458.36426	18
459.37164	20

NAME: Ginsenoside Rh3; PlaSMA ID-3010
PRECURSORMZ: 605.44118
PRECURSORTYPE: [M+H]+
FORMULA: C36H60O7
Ontology: Triterpenoids
INCHIKEY: PHLXREOMFNVWOH-UHFFFAOYNA-N
SMILES: CC(C)=CCC=C(C)C1CCC2(C)C1C(O)CC1C3(C)CCC(OC4OC(CO)C(O)C(O)C4O)C(C)(C)C3CCC21C
RETENTIONTIME: 7.63
CCS: 268.8003683
IONMODE: Positive
COLLISIONENERGY: 
Comment: Annotation level-1; PlaSMA ID-3010; ID title-Ginsenoside Rh3; Max plant tissue-Standard only
Num Peaks: 41
109.10517	54
121.09922	23
135.11354	16
149.13222	16
163.14728	20
175.15578	19
177.17346	16
178.16997	18
189.16418	17
189.17552	16
190.16765	17
191.18257	47
192.18864	20
193.12511	16
193.18208	29
203.17439	17
203.18541	18
205.19136	18
217.203	22
219.20689	20
221.20323	20
227.17641	16
259.22699	25
304.26096	16
310.259	23
322.25949	17
322.31326	26
343.31131	27
407.367	16
407.37924	19
408.36316	19
425.37302	82
493.32178	16
587.40118	36
587.42291	41
588.41113	16
588.43182	28
593.78784	18
605.43268	628
605.47375	42
605.48492	17

NAME: Ginsenoside compound K; PlaSMA ID-3068
PRECURSORMZ: 623.45175
PRECURSORTYPE: [M+H]+
FORMULA: C36H62O8
Ontology: Triterpenoids
INCHIKEY: FVIZARNDLVOMSU-UHFFFAOYNA-N
SMILES: CC(C)=CCCC(C)(OC1OC(CO)C(O)C(O)C1O)C1CCC2(C)C1C(O)CC1C3(C)CCC(O)C(C)(C)C3CCC21C
RETENTIONTIME: 9.51
CCS: 254.7817775
IONMODE: Positive
COLLISIONENERGY: 
Comment: Annotation level-1; PlaSMA ID-3068; ID title-Ginsenoside compound K; Max plant tissue-Standard only
Num Peaks: 45
93.07407	17
109.08759	26
127.10602	17
137.13123	16
147.11719	17
149.12819	34
149.14413	23
151.1524	18
165.16759	16
171.12445	17
175.15015	21
177.16319	18
203.18079	34
205.19977	18
207.17815	16
211.12439	20
213.16606	20
215.18153	20
217.20212	20
221.1739	16
221.18584	16
229.20045	16
263.16693	18
299.27463	18
313.23285	18
340.30948	16
370.31195	16
370.33936	23
408.35214	16
408.38525	17
409.37427	17
425.37164	169
425.39423	50
426.36053	16
426.37784	17
443.3793	81
443.40414	78
444.36975	17
444.38681	16
445.39606	31
539.42084	16
605.44958	16
606.46039	37
623.4411	23
623.46661	16

NAME: Ginsenoside F1; PlaSMA ID-3105
PRECURSORMZ: 639.44666
PRECURSORTYPE: [M+H]+
FORMULA: C36H62O9
Ontology: Triterpenoids
INCHIKEY: XNGXWSFSJIQMNC-UHFFFAOYNA-N
SMILES: CC(C)=CCCC(C)(OC1OC(CO)C(O)C(O)C1O)C1CCC2(C)C1C(O)CC1C3(C)CCC(O)C(C)(C)C3C(O)CC21C
RETENTIONTIME: 6.59
CCS: 245.437139
IONMODE: Positive
COLLISIONENERGY: 
Comment: Annotation level-1; PlaSMA ID-3105; ID title-Ginsenoside F1; Max plant tissue-Standard only
Num Peaks: 29
95.08746	20
147.11739	22
148.12204	19
149.12749	16
151.11823	17
203.18663	23
205.15715	21
217.20914	17
236.20615	17
241.19237	16
248.20726	24
255.202	16
269.20737	17
323.27478	16
379.30405	16
423.36935	43
424.34534	54
424.37625	16
425.3678	17
441.35486	16
441.37469	57
442.37845	17
443.38937	18
459.37897	86
459.40283	47
461.38663	16
603.41882	39
639.39783	17
639.44958	16

NAME: alpha-Hederin; PlaSMA ID-3266
PRECURSORMZ: 751.4627
PRECURSORTYPE: [M+H]+
FORMULA: C41H66O12
Ontology: Triterpenoids
INCHIKEY: KEOITPILCOILGM-UHFFFAOYNA-N
SMILES: CC1OC(OC2C(O)C(O)COC2OC2CCC3(C)C(CCC4(C)C3CC=C3C5CC(C)(C)CCC5(CCC43C)C(O)=O)C2(C)CO)C(O)C(O)C1O
RETENTIONTIME: 7.96
CCS: 269.6363006
IONMODE: Positive
COLLISIONENERGY: 
Comment: Annotation level-1; PlaSMA ID-3266; ID title-alpha-Hederin; Max plant tissue-Standard only
Num Peaks: 135
76.04355	22
112.25614	17
113.06177	28
115.04004	56
129.06123	20
133.0462	26
133.1048	20
134.10988	20
135.11673	24
137.06483	20
139.04709	28
139.09952	27
143.04332	26
147.05307	18
147.06035	43
147.06923	20
149.13528	45
163.14334	20
175.155	17
177.15865	18
179.07312	21
187.15047	19
187.16745	19
188.15973	22
189.16454	90
190.16182	48
191.18097	41
192.19421	21
195.17462	18
196.17592	20
201.15881	18
201.1739	17
202.17374	17
203.16725	19
203.18242	57
204.17613	28
205.15379	20
207.17812	80
213.07727	51
215.16362	22
215.18166	19
218.67764	17
219.19249	29
221.20245	21
225.06703	18
225.08638	43
226.08037	21
227.18654	17
239.18761	17
242.6283	21
243.08615	80
243.21104	19
247.15695	20
247.1796	41
250.69783	18
251.19003	20
260.18442	17
261.08575	20
261.10251	19
262.19336	20
273.17575	28
275.20297	27
279.10962	223
279.12167	74
280.1087	37
281.16071	25
281.20953	33
284.22989	24
285.21564	20
315.22849	17
327.22861	22
329.245	17
351.29459	18
351.31766	18
388.26846	24
391.32953	67
391.34717	28
392.33145	28
392.34656	18
397.29861	55
397.32056	24
398.31665	50
409.35162	190
410.34354	55
410.37415	22
411.35587	23
419.3013	19
420.30768	21
425.32794	41
425.34177	35
426.34341	18
427.35547	17
427.3855	23
437.21713	18
437.33499	380
437.35135	308
437.90979	30
438.34991	427
438.38608	21
439.34195	18
